(set-info :smt-lib-version 2.6)
(set-logic QF_LIRA)
(set-info :source |Submitted by David Monniaux <David.Monniaux@imag.fr>|)
(set-info :category "industrial")
(set-info :status unsat)
(declare-fun b_1 () Bool)
(declare-fun b_10 () Bool)
(declare-fun b_11 () Bool)
(declare-fun b_12 () Bool)
(declare-fun b_13 () Bool)
(declare-fun b_14 () Bool)
(declare-fun b_15 () Bool)
(declare-fun b_16 () Bool)
(declare-fun b_17 () Bool)
(declare-fun b_18 () Bool)
(declare-fun b_19 () Bool)
(declare-fun b_2 () Bool)
(declare-fun b_20 () Bool)
(declare-fun b_21 () Bool)
(declare-fun b_22 () Bool)
(declare-fun b_23 () Bool)
(declare-fun b_24 () Bool)
(declare-fun b_25 () Bool)
(declare-fun b_26 () Bool)
(declare-fun b_27 () Bool)
(declare-fun b_28 () Bool)
(declare-fun b_29 () Bool)
(declare-fun b_3 () Bool)
(declare-fun b_30 () Bool)
(declare-fun b_31 () Bool)
(declare-fun b_32 () Bool)
(declare-fun b_33 () Bool)
(declare-fun b_34 () Bool)
(declare-fun b_35 () Bool)
(declare-fun b_36 () Bool)
(declare-fun b_37 () Bool)
(declare-fun b_38 () Bool)
(declare-fun b_39 () Bool)
(declare-fun b_4 () Bool)
(declare-fun b_40 () Bool)
(declare-fun b_41 () Bool)
(declare-fun b_42 () Bool)
(declare-fun b_44 () Bool)
(declare-fun b_5 () Bool)
(declare-fun b_6 () Bool)
(declare-fun b_7 () Bool)
(declare-fun b_8 () Bool)
(declare-fun b_9 () Bool)
(declare-fun bd_0 () Bool)
(declare-fun bd_43 () Bool)
(declare-fun bs_0 () Bool)
(declare-fun c_0xc5067a8 () Bool)
(declare-fun t_0_1 () Bool)
(declare-fun t_0_2 () Bool)
(declare-fun t_10_6 () Bool)
(declare-fun t_11_14 () Bool)
(declare-fun t_12_11 () Bool)
(declare-fun t_12_13 () Bool)
(declare-fun t_13_11 () Bool)
(declare-fun t_14_15 () Bool)
(declare-fun t_14_16 () Bool)
(declare-fun t_15_17 () Bool)
(declare-fun t_15_18 () Bool)
(declare-fun t_16_19 () Bool)
(declare-fun t_17_19 () Bool)
(declare-fun t_17_20 () Bool)
(declare-fun t_18_17 () Bool)
(declare-fun t_19_21 () Bool)
(declare-fun t_19_22 () Bool)
(declare-fun t_1_3 () Bool)
(declare-fun t_1_4 () Bool)
(declare-fun t_20_19 () Bool)
(declare-fun t_21_23 () Bool)
(declare-fun t_22_21 () Bool)
(declare-fun t_23_24 () Bool)
(declare-fun t_23_25 () Bool)
(declare-fun t_24_26 () Bool)
(declare-fun t_24_27 () Bool)
(declare-fun t_25_2 () Bool)
(declare-fun t_25_27 () Bool)
(declare-fun t_26_28 () Bool)
(declare-fun t_26_29 () Bool)
(declare-fun t_27_35 () Bool)
(declare-fun t_28_30 () Bool)
(declare-fun t_29_28 () Bool)
(declare-fun t_2_35 () Bool)
(declare-fun t_2_37 () Bool)
(declare-fun t_30_31 () Bool)
(declare-fun t_30_32 () Bool)
(declare-fun t_31_33 () Bool)
(declare-fun t_31_34 () Bool)
(declare-fun t_32_2 () Bool)
(declare-fun t_32_34 () Bool)
(declare-fun t_33_35 () Bool)
(declare-fun t_33_36 () Bool)
(declare-fun t_34_35 () Bool)
(declare-fun t_35_39 () Bool)
(declare-fun t_35_40 () Bool)
(declare-fun t_36_2 () Bool)
(declare-fun t_36_35 () Bool)
(declare-fun t_37_35 () Bool)
(declare-fun t_37_38 () Bool)
(declare-fun t_38_35 () Bool)
(declare-fun t_39_41 () Bool)
(declare-fun t_39_42 () Bool)
(declare-fun t_3_5 () Bool)
(declare-fun t_40_39 () Bool)
(declare-fun t_41_43 () Bool)
(declare-fun t_42_43 () Bool)
(declare-fun t_42_44 () Bool)
(declare-fun t_44_43 () Bool)
(declare-fun t_4_5 () Bool)
(declare-fun t_5_6 () Bool)
(declare-fun t_5_7 () Bool)
(declare-fun t_6_11 () Bool)
(declare-fun t_6_12 () Bool)
(declare-fun t_7_8 () Bool)
(declare-fun t_7_9 () Bool)
(declare-fun t_8_6 () Bool)
(declare-fun t_9_10 () Bool)
(declare-fun t_9_6 () Bool)
(declare-fun x_Accel_ () Real)
(declare-fun x_Brake_ () Real)
(declare-fun x_CarSpeed_ () Real)
(declare-fun x_Ctxt_SystemSimul_System_SM2_state_act_2_SM1_Enabled.113_ ()
  Int)
(declare-fun x_Ctxt_SystemSimul_System_SM2_state_act_2_SM1_Enabled.114_ ()
  Int)
(declare-fun
  x_Ctxt_SystemSimul_System_SM3_fired_strong_2_SM1_Enabled_SM2_Active.2_ ()
  Int)
(declare-fun
  x_Ctxt_SystemSimul_System_StdbyCondition_2_SM1_Enabled_SM2_Active.0_ ()
  Int)
(declare-fun x_Ctxt_SystemSimul_System_ThrottleCmd.47_ () Real)
(declare-fun x_Ctxt_SystemSimul_System_ThrottleCmd.4_ () Real)
(declare-fun
  x_Ctxt_SystemSimul_System__4_SM3_clock_2_SM1_Enabled_SM2_Active.15_ () Int)
(declare-fun
  x_Ctxt_SystemSimul_System__4_SM3_clock_2_SM1_Enabled_SM2_Active.3_ () Int)
(declare-fun x_Ctxt_SystemSimul_System__L3_1_1_2.2_ () Real)
(declare-fun x_Ctxt_SystemSimul_System__L9_1_1_2.1_ () Real)
(declare-fun x_On_ () Int)
(declare-fun x_QuickAccel_ () Int)
(declare-fun x_QuickDecel_ () Int)
(declare-fun x_Set_ () Int)
(declare-fun x_X_ () Real)
(declare-fun x__3_SM3_reset_act_2_SM1_Enabled_SM2_Active.1_ () Int)
(declare-fun x_add133_ () Real)
(declare-fun x_add135_ () Real)
(declare-fun x_add177_ () Real)
(declare-fun x_add180_ () Real)
(declare-fun x_add182_ () Real)
(declare-fun x_add197_ () Real)
(declare-fun x_add_ () Real)
(declare-fun x_conv137_ () Int)
(declare-fun x_conv138_ () Int)
(declare-fun x_conv140_ () Int)
(declare-fun x_conv141_ () Int)
(declare-fun x_conv142_ () Int)
(declare-fun x_conv143_ () Int)
(declare-fun x_conv32_ () Int)
(declare-fun x_conv33_ () Int)
(declare-fun x_conv75_ () Int)
(declare-fun x_conv77_ () Int)
(declare-fun x_conv79_ () Int)
(declare-fun x_conv81_ () Int)
(declare-fun x_div_ () Real)
(declare-fun x_lnot.ext_ () Int)
(declare-fun x_mul134_ () Real)
(declare-fun x_mul170_ () Real)
(declare-fun x_mul176_ () Real)
(declare-fun x_mul179_ () Real)
(declare-fun x_mul181_ () Real)
(declare-fun x_mul_ () Real)
(declare-fun x_prime_tmp1.2_ () Real)
(declare-fun x_sub124_ () Real)
(declare-fun x_sub168_ () Real)
(declare-fun x_sub186_ () Real)
(declare-fun x_sub194_ () Real)
(declare-fun x_sub_ () Real)
(declare-fun x_tmp.1_ () Real)
(declare-fun x_tmp1.2_ () Real)
(declare-fun x_unnamed_1_ () Int)
(declare-fun x_unnamed_2_ () Int)
(declare-fun x_unnamed_3_ () Int)
(declare-fun x_unnamed_4_ () Int)
(declare-fun x_unnamed_5_ () Int)
(declare-fun c0 () Int)
(declare-fun c_0_1 () Int)
(declare-fun c_0_2 () Int)
(declare-fun c1 () Int)
(declare-fun c_1_3 () Int)
(declare-fun c_1_4 () Int)
(declare-fun c4 () Int)
(declare-fun c_4_5 () Int)
(declare-fun c3 () Int)
(declare-fun c_3_5 () Int)
(declare-fun c5 () Int)
(declare-fun c_5_6 () Int)
(declare-fun c_5_7 () Int)
(declare-fun c7 () Int)
(declare-fun c_7_8 () Int)
(declare-fun c_7_9 () Int)
(declare-fun c8 () Int)
(declare-fun c_8_6 () Int)
(declare-fun c9 () Int)
(declare-fun c_9_10 () Int)
(declare-fun c_9_6 () Int)
(declare-fun c10 () Int)
(declare-fun c_10_6 () Int)
(declare-fun c6 () Int)
(declare-fun c_6_11 () Int)
(declare-fun c_6_12 () Int)
(declare-fun c12 () Int)
(declare-fun c_12_11 () Int)
(declare-fun c_12_13 () Int)
(declare-fun c13 () Int)
(declare-fun c_13_11 () Int)
(declare-fun c11 () Int)
(declare-fun c_11_14 () Int)
(declare-fun c14 () Int)
(declare-fun c_14_15 () Int)
(declare-fun c_14_16 () Int)
(declare-fun c15 () Int)
(declare-fun c_15_17 () Int)
(declare-fun c_15_18 () Int)
(declare-fun c18 () Int)
(declare-fun c_18_17 () Int)
(declare-fun c17 () Int)
(declare-fun c_17_19 () Int)
(declare-fun c_17_20 () Int)
(declare-fun c16 () Int)
(declare-fun c_16_19 () Int)
(declare-fun c20 () Int)
(declare-fun c_20_19 () Int)
(declare-fun c19 () Int)
(declare-fun c_19_21 () Int)
(declare-fun c_19_22 () Int)
(declare-fun c22 () Int)
(declare-fun c_22_21 () Int)
(declare-fun c21 () Int)
(declare-fun c_21_23 () Int)
(declare-fun c23 () Int)
(declare-fun c_23_24 () Int)
(declare-fun c_23_25 () Int)
(declare-fun c25 () Int)
(declare-fun c_25_2 () Int)
(declare-fun c_25_27 () Int)
(declare-fun c24 () Int)
(declare-fun c_24_26 () Int)
(declare-fun c_24_27 () Int)
(declare-fun c26 () Int)
(declare-fun c_26_28 () Int)
(declare-fun c_26_29 () Int)
(declare-fun c29 () Int)
(declare-fun c_29_28 () Int)
(declare-fun c28 () Int)
(declare-fun c_28_30 () Int)
(declare-fun c30 () Int)
(declare-fun c_30_31 () Int)
(declare-fun c_30_32 () Int)
(declare-fun c32 () Int)
(declare-fun c_32_2 () Int)
(declare-fun c_32_34 () Int)
(declare-fun c31 () Int)
(declare-fun c_31_33 () Int)
(declare-fun c_31_34 () Int)
(declare-fun c33 () Int)
(declare-fun c_33_35 () Int)
(declare-fun c_33_36 () Int)
(declare-fun c36 () Int)
(declare-fun c_36_35 () Int)
(declare-fun c_36_2 () Int)
(declare-fun c2 () Int)
(declare-fun c_2_35 () Int)
(declare-fun c_2_37 () Int)
(declare-fun c37 () Int)
(declare-fun c_37_35 () Int)
(declare-fun c_37_38 () Int)
(declare-fun c27 () Int)
(declare-fun c_27_35 () Int)
(declare-fun c34 () Int)
(declare-fun c_34_35 () Int)
(declare-fun c38 () Int)
(declare-fun c_38_35 () Int)
(declare-fun c35 () Int)
(declare-fun c_35_39 () Int)
(declare-fun c_35_40 () Int)
(declare-fun c40 () Int)
(declare-fun c_40_39 () Int)
(declare-fun c39 () Int)
(declare-fun c_39_41 () Int)
(declare-fun c_39_42 () Int)
(declare-fun c41 () Int)
(declare-fun c_41_43 () Int)
(declare-fun c42 () Int)
(declare-fun c_42_43 () Int)
(declare-fun c_42_44 () Int)
(declare-fun c44 () Int)
(declare-fun c_44_43 () Int)
(declare-fun c43 () Int)
(declare-fun cost () Int)
(assert
 (and (= bd_0 false) (= c_0xc5067a8 (xor (not (= x_On_ 0)) true))
 (= x_lnot.ext_ (ite c_0xc5067a8 0 1)) 
 (= t_0_1 (and bs_0 (not (= x_On_ 0))))
 (= t_0_2 (and bs_0 (not (not (= x_On_ 0))))) 
 (= b_1 t_0_1) (= x_conv32_ (ite (> x_Brake_ 3.0) 0 1))
 (= t_1_3 (and b_1 (not (= x_conv33_ 0))))
 (= t_1_4 (and b_1 (not (not (= x_conv33_ 0))))) 
 (= b_3 t_1_3) (= t_3_5 b_3) 
 (= b_4 t_1_4) (= t_4_5 b_4) 
 (= b_5 (or t_3_5 t_4_5))
 (or (not b_5)
 (= x_Ctxt_SystemSimul_System_SM2_state_act_2_SM1_Enabled.113_
 (ite t_4_5 0 1)))
 (or (not b_5)
 (= x_Ctxt_SystemSimul_System_SM2_state_act_2_SM1_Enabled.114_
 (ite t_4_5 0 1))) (= t_5_6 (and b_5 (not (= x_Set_ 0))))
 (= t_5_7 (and b_5 (not (not (= x_Set_ 0))))) 
 (= b_7 t_5_7) (= t_7_8 (and b_7 (not (= x_QuickAccel_ 0))))
 (= t_7_9 (and b_7 (not (not (= x_QuickAccel_ 0))))) 
 (= b_9 t_7_9) (= t_9_10 (and b_9 (not (= x_QuickDecel_ 0))))
 (= t_9_6 (and b_9 (not (not (= x_QuickDecel_ 0))))) 
 (= b_10 t_9_10) (= x_sub_ (- x_CarSpeed_ 2.5)) 
 (= t_10_6 b_10) (= b_8 t_7_8) 
 (= x_add_ (+ x_CarSpeed_ 2.5)) 
 (= t_8_6 b_8) (= b_6 (or t_10_6 t_9_6 t_8_6 t_5_6))
 (or (not b_6)
 (= x_Ctxt_SystemSimul_System__L3_1_1_2.2_
 (ite t_5_6 x_CarSpeed_ (ite t_8_6 x_add_ (ite t_10_6 x_sub_ x_CarSpeed_)))))
 (= t_6_11 (and b_6 (>= x_Ctxt_SystemSimul_System__L3_1_1_2.2_ 150.0)))
 (= t_6_12 (and b_6 (not (>= x_Ctxt_SystemSimul_System__L3_1_1_2.2_ 150.0))))
 (= b_12 t_6_12)
 (= t_12_11 (and b_12 (<= x_Ctxt_SystemSimul_System__L3_1_1_2.2_ 30.0)))
 (= t_12_13
 (and b_12 (not (<= x_Ctxt_SystemSimul_System__L3_1_1_2.2_ 30.0))))
 (= b_13 t_12_13) (= t_13_11 b_13) 
 (= b_11 (or t_13_11 t_12_11 t_6_11))
 (or (not b_11)
 (= x_Ctxt_SystemSimul_System__L9_1_1_2.1_
 (ite t_6_11 150.0 (ite t_13_11 x_Ctxt_SystemSimul_System__L3_1_1_2.2_ 30.0))))
 (= t_11_14 b_11) (= b_14 t_11_14)
 (= t_14_15
 (and b_14 (= x_Ctxt_SystemSimul_System_SM2_state_act_2_SM1_Enabled.113_ 0)))
 (= t_14_16
 (and b_14
 (not (= x_Ctxt_SystemSimul_System_SM2_state_act_2_SM1_Enabled.113_ 0))))
 (= b_15 t_14_15) (= x_conv75_ (ite (> x_Accel_ 3.0) 0 1))
 (= x_conv77_ (ite (< x_CarSpeed_ 30.0) 0 1))
 (= x_conv79_ (ite (> x_CarSpeed_ 150.0) 0 1))
 (= t_15_17 (and b_15 (not (= x_conv81_ 0))))
 (= t_15_18 (and b_15 (not (not (= x_conv81_ 0))))) 
 (= b_18 t_15_18) (= t_18_17 b_18) 
 (= b_17 (or t_18_17 t_15_17))
 (or (not b_17)
 (= x_Ctxt_SystemSimul_System__4_SM3_clock_2_SM1_Enabled_SM2_Active.15_
 (ite t_18_17 0 1))) (= t_17_19 (and b_17 (not (= x_conv33_ 0))))
 (= t_17_20 (and b_17 (not (not (= x_conv33_ 0))))) 
 (= b_20 t_17_20) (= t_20_19 b_20) 
 (= b_16 t_14_16) (= t_16_19 b_16) 
 (= b_19 (or t_20_19 t_16_19 t_17_19))
 (or (not b_19)
 (= x_Ctxt_SystemSimul_System__4_SM3_clock_2_SM1_Enabled_SM2_Active.3_
 (ite t_16_19 x_unnamed_1_
 (ite t_17_19
 x_Ctxt_SystemSimul_System__4_SM3_clock_2_SM1_Enabled_SM2_Active.15_
 x_Ctxt_SystemSimul_System__4_SM3_clock_2_SM1_Enabled_SM2_Active.15_))))
 (or (not b_19)
 (= x_Ctxt_SystemSimul_System_StdbyCondition_2_SM1_Enabled_SM2_Active.0_
 (ite t_16_19 x_unnamed_2_ (ite t_17_19 x_conv81_ x_conv81_))))
 (or (not b_19)
 (= x__3_SM3_reset_act_2_SM1_Enabled_SM2_Active.1_
 (ite t_16_19 x_unnamed_3_ (ite t_17_19 x_unnamed_4_ x_unnamed_5_))))
 (= t_19_21 (and b_19 (not (= x_On_ 0))))
 (= t_19_22 (and b_19 (not (not (= x_On_ 0))))) 
 (= b_22 t_19_22) (= t_22_21 b_22) 
 (= b_21 (or t_22_21 t_19_21)) 
 (= t_21_23 b_21) (= b_23 t_21_23)
 (= t_23_24
 (and b_23 (< x_Ctxt_SystemSimul_System_SM2_state_act_2_SM1_Enabled.113_ 1)))
 (= t_23_25
 (and b_23
 (not (< x_Ctxt_SystemSimul_System_SM2_state_act_2_SM1_Enabled.113_ 1))))
 (= b_24 t_23_24)
 (= t_24_26
 (and b_24 (= x_Ctxt_SystemSimul_System_SM2_state_act_2_SM1_Enabled.113_ 0)))
 (= t_24_27
 (and b_24
 (not (= x_Ctxt_SystemSimul_System_SM2_state_act_2_SM1_Enabled.113_ 0))))
 (= b_26 t_24_26)
 (= t_26_28
 (and b_26
 (not
 (= x_Ctxt_SystemSimul_System_StdbyCondition_2_SM1_Enabled_SM2_Active.0_ 0))))
 (= t_26_29
 (and b_26
 (not
 (not
 (= x_Ctxt_SystemSimul_System_StdbyCondition_2_SM1_Enabled_SM2_Active.0_ 0)))))
 (= b_29 t_26_29) (= t_29_28 b_29) 
 (= b_28 (or t_29_28 t_26_28))
 (or (not b_28)
 (= x_Ctxt_SystemSimul_System_SM3_fired_strong_2_SM1_Enabled_SM2_Active.2_
 (ite t_29_28 0 1))) (= t_28_30 b_28) 
 (= b_30 t_28_30)
 (= t_30_31
 (and b_30
 (< x_Ctxt_SystemSimul_System__4_SM3_clock_2_SM1_Enabled_SM2_Active.3_ 1)))
 (= t_30_32
 (and b_30
 (not
 (< x_Ctxt_SystemSimul_System__4_SM3_clock_2_SM1_Enabled_SM2_Active.3_ 1))))
 (= b_31 t_30_31)
 (= t_31_33
 (and b_31
 (= x_Ctxt_SystemSimul_System__4_SM3_clock_2_SM1_Enabled_SM2_Active.3_ 0)))
 (= t_31_34
 (and b_31
 (not
 (= x_Ctxt_SystemSimul_System__4_SM3_clock_2_SM1_Enabled_SM2_Active.3_ 0))))
 (= b_33 t_31_33)
 (= x_sub124_ (- x_Ctxt_SystemSimul_System__L9_1_1_2.1_ x_CarSpeed_))
 (= x_add133_ (+ 0.0 0.0)) 
 (= x_add135_ (+ x_mul_ x_mul134_))
 (= x_conv137_ (ite (> x_add135_ 45.0) 0 1))
 (= x_conv140_ (ite (< x_add135_ 0.0) 0 1)) 
 (= x_conv138_ x_conv142_) 
 (= x_conv141_ x_conv143_) 
 (= t_33_35 (and b_33 (not (= x_conv138_ 0))))
 (= t_33_36 (and b_33 (not (not (= x_conv138_ 0))))) 
 (= b_36 t_33_36) (= t_36_35 (and b_36 (not (= x_conv141_ 0))))
 (= t_36_2 (and b_36 (not (not (= x_conv141_ 0))))) 
 (= b_32 t_30_32)
 (= t_32_2
 (and b_32
 (= x_Ctxt_SystemSimul_System__4_SM3_clock_2_SM1_Enabled_SM2_Active.3_ 1)))
 (= t_32_34
 (and b_32
 (not
 (= x_Ctxt_SystemSimul_System__4_SM3_clock_2_SM1_Enabled_SM2_Active.3_ 1))))
 (= b_25 t_23_25)
 (= t_25_2
 (and b_25 (= x_Ctxt_SystemSimul_System_SM2_state_act_2_SM1_Enabled.113_ 1)))
 (= t_25_27
 (and b_25
 (not (= x_Ctxt_SystemSimul_System_SM2_state_act_2_SM1_Enabled.113_ 1))))
 (= b_2 (or t_36_2 t_32_2 t_25_2 t_0_2))
 (or (not b_2)
 (= x_Ctxt_SystemSimul_System_ThrottleCmd.4_
 (ite t_0_2 x_Accel_ (ite t_25_2 x_Accel_ (ite t_32_2 x_Accel_ x_add135_)))))
 (= t_2_35 (and b_2 (< x_Ctxt_SystemSimul_System_ThrottleCmd.4_ 0.0)))
 (= t_2_37 (and b_2 (not (< x_Ctxt_SystemSimul_System_ThrottleCmd.4_ 0.0))))
 (= b_37 t_2_37)
 (= x_Ctxt_SystemSimul_System_ThrottleCmd.47_
 x_Ctxt_SystemSimul_System_ThrottleCmd.4_)
 (= t_37_35 (and b_37 (> x_Ctxt_SystemSimul_System_ThrottleCmd.47_ 100.0)))
 (= t_37_38
 (and b_37 (not (> x_Ctxt_SystemSimul_System_ThrottleCmd.47_ 100.0))))
 (= b_38 t_37_38) (= t_38_35 b_38) 
 (= b_34 (or t_31_34 t_32_34)) 
 (= t_34_35 b_34) (= b_27 (or t_24_27 t_25_27)) 
 (= t_27_35 b_27)
 (= b_35 (or t_38_35 t_34_35 t_27_35 t_37_35 t_2_35 t_36_35 t_33_35))
 (= x_sub168_ (- 1.0 x_X_)) 
 (= t_35_39 (and b_35 (<= x_mul170_ 1.0)))
 (= t_35_40 (and b_35 (not (<= x_mul170_ 1.0)))) 
 (= b_40 t_35_40) (= t_40_39 b_40) 
 (= b_39 (or t_40_39 t_35_39))
 (or (not b_39) (= x_tmp.1_ (ite t_40_39 0.0 150.0)))
 (= x_add177_ (+ x_tmp.1_ x_mul176_)) 
 (= x_add180_ (+ x_add177_ x_mul179_)) 
 (= x_add182_ (+ x_add180_ x_mul181_))
 (= t_39_41 (and b_39 (< x_CarSpeed_ (- 0.10000000000000000555))))
 (= t_39_42 (and b_39 (not (< x_CarSpeed_ (- 0.10000000000000000555)))))
 (= b_42 t_39_42)
 (= t_42_43 (and b_42 (> x_CarSpeed_ 0.10000000000000000555)))
 (= t_42_44 (and b_42 (not (> x_CarSpeed_ 0.10000000000000000555))))
 (= b_44 t_42_44) (= t_44_43 b_44) 
 (= b_41 t_39_41) (= x_sub186_ (- 0.0 x_add182_)) 
 (= t_41_43 b_41) (= bd_43 (or t_44_43 t_42_43 t_41_43))
 (or (not bd_43)
 (= x_prime_tmp1.2_ (ite t_41_43 x_sub186_ (ite t_44_43 0.0 x_add182_))))
 (= x_sub194_ (- x_mul170_ x_tmp1.2_)) 
 (= x_add197_ (+ x_div_ x_CarSpeed_))))
(assert (and (= bs_0 true) (= bd_43 true)))
(assert
 (and (= c0 0)
 (or (and (= t_0_1 true) (= c_0_1 67)) (and (= t_0_1 false) (= c_0_1 0)))
 (or (and (= t_0_2 true) (= c_0_2 66)) (and (= t_0_2 false) (= c_0_2 0)))
 (or (and (= b_1 true) (= c1 0)) (and (= b_1 false) (= c1 0)))
 (or (and (= t_1_3 true) (= c_1_3 25)) (and (= t_1_3 false) (= c_1_3 0)))
 (or (and (= t_1_4 true) (= c_1_4 26)) (and (= t_1_4 false) (= c_1_4 0)))
 (or (and (= b_4 true) (= c4 0)) (and (= b_4 false) (= c4 0)))
 (or (and (= t_4_5 true) (= c_4_5 4)) (and (= t_4_5 false) (= c_4_5 0)))
 (or (and (= b_3 true) (= c3 0)) (and (= b_3 false) (= c3 0)))
 (or (and (= t_3_5 true) (= c_3_5 5)) (and (= t_3_5 false) (= c_3_5 0)))
 (or (and (= b_5 true) (= c5 0)) (and (= b_5 false) (= c5 0)))
 (or (and (= t_5_6 true) (= c_5_6 22)) (and (= t_5_6 false) (= c_5_6 0)))
 (or (and (= t_5_7 true) (= c_5_7 23)) (and (= t_5_7 false) (= c_5_7 0)))
 (or (and (= b_7 true) (= c7 0)) (and (= b_7 false) (= c7 0)))
 (or (and (= t_7_8 true) (= c_7_8 6)) (and (= t_7_8 false) (= c_7_8 0)))
 (or (and (= t_7_9 true) (= c_7_9 5)) (and (= t_7_9 false) (= c_7_9 0)))
 (or (and (= b_8 true) (= c8 0)) (and (= b_8 false) (= c8 0)))
 (or (and (= t_8_6 true) (= c_8_6 15)) (and (= t_8_6 false) (= c_8_6 0)))
 (or (and (= b_9 true) (= c9 0)) (and (= b_9 false) (= c9 0)))
 (or (and (= t_9_10 true) (= c_9_10 18)) (and (= t_9_10 false) (= c_9_10 0)))
 (or (and (= t_9_6 true) (= c_9_6 17)) (and (= t_9_6 false) (= c_9_6 0)))
 (or (and (= b_10 true) (= c10 0)) (and (= b_10 false) (= c10 0)))
 (or (and (= t_10_6 true) (= c_10_6 14)) (and (= t_10_6 false) (= c_10_6 0)))
 (or (and (= b_6 true) (= c6 0)) (and (= b_6 false) (= c6 0)))
 (or (and (= t_6_11 true) (= c_6_11 33)) (and (= t_6_11 false) (= c_6_11 0)))
 (or (and (= t_6_12 true) (= c_6_12 34)) (and (= t_6_12 false) (= c_6_12 0)))
 (or (and (= b_12 true) (= c12 0)) (and (= b_12 false) (= c12 0)))
 (or (and (= t_12_11 true) (= c_12_11 34))
 (and (= t_12_11 false) (= c_12_11 0)))
 (or (and (= t_12_13 true) (= c_12_13 35))
 (and (= t_12_13 false) (= c_12_13 0)))
 (or (and (= b_13 true) (= c13 0)) (and (= b_13 false) (= c13 0)))
 (or (and (= t_13_11 true) (= c_13_11 10))
 (and (= t_13_11 false) (= c_13_11 0)))
 (or (and (= b_11 true) (= c11 0)) (and (= b_11 false) (= c11 0)))
 (or (and (= t_11_14 true) (= c_11_14 0))
 (and (= t_11_14 false) (= c_11_14 0)))
 (or (and (= b_14 true) (= c14 0)) (and (= b_14 false) (= c14 0)))
 (or (and (= t_14_15 true) (= c_14_15 18))
 (and (= t_14_15 false) (= c_14_15 0)))
 (or (and (= t_14_16 true) (= c_14_16 17))
 (and (= t_14_16 false) (= c_14_16 0)))
 (or (and (= b_15 true) (= c15 0)) (and (= b_15 false) (= c15 0)))
 (or (and (= t_15_17 true) (= c_15_17 85))
 (and (= t_15_17 false) (= c_15_17 0)))
 (or (and (= t_15_18 true) (= c_15_18 86))
 (and (= t_15_18 false) (= c_15_18 0)))
 (or (and (= b_18 true) (= c18 0)) (and (= b_18 false) (= c18 0)))
 (or (and (= t_18_17 true) (= c_18_17 3))
 (and (= t_18_17 false) (= c_18_17 0)))
 (or (and (= b_17 true) (= c17 0)) (and (= b_17 false) (= c17 0)))
 (or (and (= t_17_19 true) (= c_17_19 20))
 (and (= t_17_19 false) (= c_17_19 0)))
 (or (and (= t_17_20 true) (= c_17_20 21))
 (and (= t_17_20 false) (= c_17_20 0)))
 (or (and (= b_16 true) (= c16 0)) (and (= b_16 false) (= c16 0)))
 (or (and (= t_16_19 true) (= c_16_19 7))
 (and (= t_16_19 false) (= c_16_19 0)))
 (or (and (= b_20 true) (= c20 0)) (and (= b_20 false) (= c20 0)))
 (or (and (= t_20_19 true) (= c_20_19 12))
 (and (= t_20_19 false) (= c_20_19 0)))
 (or (and (= b_19 true) (= c19 0)) (and (= b_19 false) (= c19 0)))
 (or (and (= t_19_21 true) (= c_19_21 17))
 (and (= t_19_21 false) (= c_19_21 0)))
 (or (and (= t_19_22 true) (= c_19_22 18))
 (and (= t_19_22 false) (= c_19_22 0)))
 (or (and (= b_22 true) (= c22 0)) (and (= b_22 false) (= c22 0)))
 (or (and (= t_22_21 true) (= c_22_21 0))
 (and (= t_22_21 false) (= c_22_21 0)))
 (or (and (= b_21 true) (= c21 0)) (and (= b_21 false) (= c21 0)))
 (or (and (= t_21_23 true) (= c_21_23 0))
 (and (= t_21_23 false) (= c_21_23 0)))
 (or (and (= b_23 true) (= c23 0)) (and (= b_23 false) (= c23 0)))
 (or (and (= t_23_24 true) (= c_23_24 7))
 (and (= t_23_24 false) (= c_23_24 0)))
 (or (and (= t_23_25 true) (= c_23_25 8))
 (and (= t_23_25 false) (= c_23_25 0)))
 (or (and (= b_25 true) (= c25 0)) (and (= b_25 false) (= c25 0)))
 (or (and (= t_25_2 true) (= c_25_2 15)) (and (= t_25_2 false) (= c_25_2 0)))
 (or (and (= t_25_27 true) (= c_25_27 16))
 (and (= t_25_27 false) (= c_25_27 0)))
 (or (and (= b_24 true) (= c24 0)) (and (= b_24 false) (= c24 0)))
 (or (and (= t_24_26 true) (= c_24_26 8))
 (and (= t_24_26 false) (= c_24_26 0)))
 (or (and (= t_24_27 true) (= c_24_27 7))
 (and (= t_24_27 false) (= c_24_27 0)))
 (or (and (= b_26 true) (= c26 0)) (and (= b_26 false) (= c26 0)))
 (or (and (= t_26_28 true) (= c_26_28 5))
 (and (= t_26_28 false) (= c_26_28 0)))
 (or (and (= t_26_29 true) (= c_26_29 6))
 (and (= t_26_29 false) (= c_26_29 0)))
 (or (and (= b_29 true) (= c29 0)) (and (= b_29 false) (= c29 0)))
 (or (and (= t_29_28 true) (= c_29_28 0))
 (and (= t_29_28 false) (= c_29_28 0)))
 (or (and (= b_28 true) (= c28 0)) (and (= b_28 false) (= c28 0)))
 (or (and (= t_28_30 true) (= c_28_30 0))
 (and (= t_28_30 false) (= c_28_30 0)))
 (or (and (= b_30 true) (= c30 0)) (and (= b_30 false) (= c30 0)))
 (or (and (= t_30_31 true) (= c_30_31 7))
 (and (= t_30_31 false) (= c_30_31 0)))
 (or (and (= t_30_32 true) (= c_30_32 8))
 (and (= t_30_32 false) (= c_30_32 0)))
 (or (and (= b_32 true) (= c32 0)) (and (= b_32 false) (= c32 0)))
 (or (and (= t_32_2 true) (= c_32_2 15)) (and (= t_32_2 false) (= c_32_2 0)))
 (or (and (= t_32_34 true) (= c_32_34 16))
 (and (= t_32_34 false) (= c_32_34 0)))
 (or (and (= b_31 true) (= c31 0)) (and (= b_31 false) (= c31 0)))
 (or (and (= t_31_33 true) (= c_31_33 8))
 (and (= t_31_33 false) (= c_31_33 0)))
 (or (and (= t_31_34 true) (= c_31_34 7))
 (and (= t_31_34 false) (= c_31_34 0)))
 (or (and (= b_33 true) (= c33 0)) (and (= b_33 false) (= c33 0)))
 (or (and (= t_33_35 true) (= c_33_35 76))
 (and (= t_33_35 false) (= c_33_35 0)))
 (or (and (= t_33_36 true) (= c_33_36 77))
 (and (= t_33_36 false) (= c_33_36 0)))
 (or (and (= b_36 true) (= c36 0)) (and (= b_36 false) (= c36 0)))
 (or (and (= t_36_35 true) (= c_36_35 15))
 (and (= t_36_35 false) (= c_36_35 0)))
 (or (and (= t_36_2 true) (= c_36_2 16)) (and (= t_36_2 false) (= c_36_2 0)))
 (or (and (= b_2 true) (= c2 0)) (and (= b_2 false) (= c2 0)))
 (or (and (= t_2_35 true) (= c_2_35 31)) (and (= t_2_35 false) (= c_2_35 0)))
 (or (and (= t_2_37 true) (= c_2_37 32)) (and (= t_2_37 false) (= c_2_37 0)))
 (or (and (= b_37 true) (= c37 0)) (and (= b_37 false) (= c37 0)))
 (or (and (= t_37_35 true) (= c_37_35 12))
 (and (= t_37_35 false) (= c_37_35 0)))
 (or (and (= t_37_38 true) (= c_37_38 13))
 (and (= t_37_38 false) (= c_37_38 0)))
 (or (and (= b_27 true) (= c27 0)) (and (= b_27 false) (= c27 0)))
 (or (and (= t_27_35 true) (= c_27_35 1))
 (and (= t_27_35 false) (= c_27_35 0)))
 (or (and (= b_34 true) (= c34 0)) (and (= b_34 false) (= c34 0)))
 (or (and (= t_34_35 true) (= c_34_35 1))
 (and (= t_34_35 false) (= c_34_35 0)))
 (or (and (= b_38 true) (= c38 0)) (and (= b_38 false) (= c38 0)))
 (or (and (= t_38_35 true) (= c_38_35 0))
 (and (= t_38_35 false) (= c_38_35 0)))
 (or (and (= b_35 true) (= c35 0)) (and (= b_35 false) (= c35 0)))
 (or (and (= t_35_39 true) (= c_35_39 72))
 (and (= t_35_39 false) (= c_35_39 0)))
 (or (and (= t_35_40 true) (= c_35_40 73))
 (and (= t_35_40 false) (= c_35_40 0)))
 (or (and (= b_40 true) (= c40 0)) (and (= b_40 false) (= c40 0)))
 (or (and (= t_40_39 true) (= c_40_39 6))
 (and (= t_40_39 false) (= c_40_39 0)))
 (or (and (= b_39 true) (= c39 0)) (and (= b_39 false) (= c39 0)))
 (or (and (= t_39_41 true) (= c_39_41 184))
 (and (= t_39_41 false) (= c_39_41 0)))
 (or (and (= t_39_42 true) (= c_39_42 183))
 (and (= t_39_42 false) (= c_39_42 0)))
 (or (and (= b_41 true) (= c41 0)) (and (= b_41 false) (= c41 0)))
 (or (and (= t_41_43 true) (= c_41_43 12))
 (and (= t_41_43 false) (= c_41_43 0)))
 (or (and (= b_42 true) (= c42 0)) (and (= b_42 false) (= c42 0)))
 (or (and (= t_42_43 true) (= c_42_43 27))
 (and (= t_42_43 false) (= c_42_43 0)))
 (or (and (= t_42_44 true) (= c_42_44 28))
 (and (= t_42_44 false) (= c_42_44 0)))
 (or (and (= b_44 true) (= c44 0)) (and (= b_44 false) (= c44 0)))
 (or (and (= t_44_43 true) (= c_44_43 6))
 (and (= t_44_43 false) (= c_44_43 0)))
 (or (and (= bd_43 true) (= c43 17)) (and (= bd_43 false) (= c43 0)))
 (= cost
 (+ c0 c_0_1 c_0_2 c1 c_1_3 c_1_4 c4 c_4_5 c3 c_3_5 c5 c_5_6 c_5_7 c7 c_7_8
 c_7_9 c8 c_8_6 c9 c_9_10 c_9_6 c10 c_10_6 c6 c_6_11 c_6_12 c12 c_12_11
 c_12_13 c13 c_13_11 c11 c_11_14 c14 c_14_15 c_14_16 c15 c_15_17 c_15_18 c18
 c_18_17 c17 c_17_19 c_17_20 c16 c_16_19 c20 c_20_19 c19 c_19_21 c_19_22 c22
 c_22_21 c21 c_21_23 c23 c_23_24 c_23_25 c25 c_25_2 c_25_27 c24 c_24_26
 c_24_27 c26 c_26_28 c_26_29 c29 c_29_28 c28 c_28_30 c30 c_30_31 c_30_32 c32
 c_32_2 c_32_34 c31 c_31_33 c_31_34 c33 c_33_35 c_33_36 c36 c_36_35 c_36_2 c2
 c_2_35 c_2_37 c37 c_37_35 c_37_38 c27 c_27_35 c34 c_34_35 c38 c_38_35 c35
 c_35_39 c_35_40 c40 c_40_39 c39 c_39_41 c_39_42 c41 c_41_43 c42 c_42_43
 c_42_44 c44 c_44_43 c43))))
(assert (> cost 873))
(check-sat)
(exit)
